Set parameter Username
Academic license - for non-commercial use only - expires 2022-06-20
Gurobi Optimizer version 9.5.1 build v9.5.1rc2 (mac64[x86])
Thread count: 2 physical cores, 4 logical processors, using up to 4 threads
Optimize a model with 1681 rows, 1600 columns and 6360 nonzeros
Model fingerprint: 0x3b8dbc93
Variable types: 0 continuous, 1600 integer (1600 binary)
Coefficient statistics:
  Matrix range     [1e+00, 1e+03]
  Objective range  [1e+00, 8e+00]
  Bounds range     [1e+00, 1e+00]
  RHS range        [1e+00, 4e+00]
Presolve removed 40 rows and 0 columns
Presolve time: 0.02s
Presolved: 1641 rows, 1600 columns, 6360 nonzeros
Variable types: 0 continuous, 1600 integer (1600 binary)
Found heuristic solution: objective 100.2608664

Root relaxation: objective 5.044761e+01, 543 iterations, 0.01 seconds (0.01 work units)

    Nodes    |    Current Node    |     Objective Bounds      |     Work
 Expl Unexpl |  Obj  Depth IntInf | Incumbent    BestBd   Gap | It/Node Time

     0     0   50.44761    0    4  100.26087   50.44761  49.7%     -    0s
H    0     0                      57.8788247   50.44761  12.8%     -    0s
H    0     0                      53.3869706   50.44761  5.51%     -    0s
     0     0   50.70540    0   99   53.38697   50.70540  5.02%     -    0s
     0     0   50.70540    0    4   53.38697   50.70540  5.02%     -    0s
H    0     0                      53.1416074   50.70540  4.58%     -    0s
     0     0   50.76991    0   99   53.14161   50.76991  4.46%     -    0s
H    0     0                      51.9727571   50.76991  2.31%     -    0s
     0     0   50.98775    0  111   51.97276   50.98775  1.90%     -    0s
     0     0   50.98775    0    4   51.97276   50.98775  1.90%     -    0s
     0     0   50.98775    0  106   51.97276   50.98775  1.90%     -    0s
     0     0   50.99158    0   94   51.97276   50.99158  1.89%     -    0s
     0     0   51.15638    0  125   51.97276   51.15638  1.57%     -    0s
     0     0   51.20086    0  121   51.97276   51.20086  1.49%     -    0s
     0     0   51.20272    0  124   51.97276   51.20272  1.48%     -    0s
     0     0   51.26409    0  145   51.97276   51.26409  1.36%     -    0s
     0     0   51.27871    0  148   51.97276   51.27871  1.34%     -    0s
     0     0   51.27990    0  153   51.97276   51.27990  1.33%     -    0s
     0     0   51.28026    0  152   51.97276   51.28026  1.33%     -    0s
     0     0   51.28126    0  150   51.97276   51.28126  1.33%     -    0s
     0     0   51.28126    0  150   51.97276   51.28126  1.33%     -    0s
     0     0   51.29348    0    4   51.97276   51.29348  1.31%     -    0s
     0     0   51.29348    0   91   51.97276   51.29348  1.31%     -    0s
     0     0   51.29348    0   82   51.97276   51.29348  1.31%     -    0s
     0     0   51.30353    0  112   51.97276   51.30353  1.29%     -    0s
     0     0   51.32837    0  117   51.97276   51.32837  1.24%     -    0s
     0     0   51.33357    0  116   51.97276   51.33357  1.23%     -    0s
     0     0   51.37962    0   99   51.97276   51.37962  1.14%     -    0s
     0     0   51.38671    0  124   51.97276   51.38671  1.13%     -    0s
     0     0   51.42320    0  127   51.97276   51.42320  1.06%     -    0s
     0     0   51.42750    0  128   51.97276   51.42750  1.05%     -    0s
     0     0   51.43319    0  129   51.97276   51.43319  1.04%     -    0s
     0     0   51.44000    0  129   51.97276   51.44000  1.03%     -    0s
     0     0   51.44362    0  136   51.97276   51.44362  1.02%     -    0s
     0     0   51.44363    0  136   51.97276   51.44363  1.02%     -    0s
     0     0   51.44363    0  134   51.97276   51.44363  1.02%     -    0s
     0     0   51.45470    0    4   51.97276   51.45470  1.00%     -    0s
     0     0   51.45470    0   65   51.97276   51.45470  1.00%     -    0s
     0     0   51.45470    0   78   51.97276   51.45470  1.00%     -    0s
     0     0   51.45470    0   90   51.97276   51.45470  1.00%     -    0s
     0     0   51.45470    0   99   51.97276   51.45470  1.00%     -    0s
     0     0   51.47446    0  113   51.97276   51.47446  0.96%     -    0s
     0     0   51.49122    0  101   51.97276   51.49122  0.93%     -    0s
     0     0   51.49372    0  112   51.97276   51.49372  0.92%     -    0s
     0     0   51.56588    0   95   51.97276   51.56588  0.78%     -    0s
     0     0   51.56625    0   95   51.97276   51.56625  0.78%     -    0s
     0     0   51.61342    0   88   51.97276   51.61342  0.69%     -    0s
     0     0   51.62376    0   98   51.97276   51.62376  0.67%     -    0s
     0     0   51.62378    0   99   51.97276   51.62378  0.67%     -    0s
     0     0   51.63925    0  106   51.97276   51.63925  0.64%     -    0s
     0     0   51.64177    0  109   51.97276   51.64177  0.64%     -    0s
     0     0   51.64177    0  106   51.97276   51.64177  0.64%     -    0s
     0     0   51.64177    0  106   51.97276   51.64177  0.64%     -    0s
     0     0   51.65683    0   41   51.97276   51.65683  0.61%     -    0s
     0     0   51.65683    0   60   51.97276   51.65683  0.61%     -    0s
     0     0   51.65683    0   46   51.97276   51.65683  0.61%     -    0s
     0     0   51.73168    0   55   51.97276   51.73168  0.46%     -    0s
     0     0   51.78030    0   57   51.97276   51.78030  0.37%     -    0s
     0     0   51.85325    0   55   51.97276   51.85325  0.23%     -    0s
     0     0   51.89263    0   52   51.97276   51.89263  0.15%     -    0s
     0     0   51.90065    0   52   51.97276   51.90065  0.14%     -    0s
     0     0   51.91109    0   57   51.97276   51.91109  0.12%     -    0s
     0     0   51.91595    0   57   51.97276   51.91595  0.11%     -    0s
     0     0     cutoff    0        51.97276   51.97276  0.00%     -    0s

Cutting planes:
  MIR: 13
  StrongCG: 5
  GUB cover: 4
  RLT: 1

Explored 1 nodes (3905 simplex iterations) in 1.00 seconds (0.45 work units)
Thread count was 4 (of 4 available processors)

Solution count 6: 51.9728 53.1416 53.387 ... 100.261

Optimal solution found (tolerance 1.00e-04)
Best objective 5.197275705110e+01, best bound 5.197275705110e+01, gap 0.0000%
Gurobi Optimizer version 9.5.1 build v9.5.1rc2 (mac64[x86])
Thread count: 2 physical cores, 4 logical processors, using up to 4 threads
Optimize a model with 4841 rows, 6960 columns and 25292 nonzeros
Model fingerprint: 0xbe6792b5
Variable types: 5360 continuous, 1600 integer (1600 binary)
Coefficient statistics:
  Matrix range     [1e+00, 1e+03]
  Objective range  [1e+00, 8e+00]
  Bounds range     [1e+00, 1e+00]
  RHS range        [1e+00, 4e+00]

MIP start from previous solve produced solution with objective 51.9728 (0.01s)
Loaded MIP start from previous solve with objective 51.9728

Presolve removed 80 rows and 134 columns
Presolve time: 0.10s
Presolved: 4761 rows, 6826 columns, 25016 nonzeros
Variable types: 5226 continuous, 1600 integer (1600 binary)

Root relaxation: objective 5.044761e+01, 733 iterations, 0.03 seconds (0.02 work units)

    Nodes    |    Current Node    |     Objective Bounds      |     Work
 Expl Unexpl |  Obj  Depth IntInf | Incumbent    BestBd   Gap | It/Node Time

     0     0   50.44761    0    4   51.97276   50.44761  2.93%     -    0s
     0     0   50.73547    0  140   51.97276   50.73547  2.38%     -    0s
     0     0   50.73547    0    4   51.97276   50.73547  2.38%     -    0s
     0     0   50.78211    0  133   51.97276   50.78211  2.29%     -    0s
     0     0   51.02215    0  101   51.97276   51.02215  1.83%     -    0s
     0     0   51.02348    0  101   51.97276   51.02348  1.83%     -    0s
     0     0   51.09735    0  128   51.97276   51.09735  1.68%     -    0s
     0     0   51.28872    0  100   51.97276   51.28872  1.32%     -    0s
     0     0   51.32017    0  168   51.97276   51.32017  1.26%     -    0s
     0     0   51.32017    0    4   51.97276   51.32017  1.26%     -    0s
     0     0   51.32017    0   72   51.97276   51.32017  1.26%     -    0s
     0     0   51.32017    0   96   51.97276   51.32017  1.26%     -    0s
     0     0   51.32017    0  102   51.97276   51.32017  1.26%     -    0s
     0     0   51.32706    0  124   51.97276   51.32706  1.24%     -    0s
     0     0   51.37659    0  117   51.97276   51.37659  1.15%     -    0s
     0     0   51.39586    0  123   51.97276   51.39586  1.11%     -    0s
     0     0   51.40044    0  125   51.97276   51.40044  1.10%     -    0s
     0     0   51.43581    0  111   51.97276   51.43581  1.03%     -    1s
     0     0   51.44981    0  128   51.97276   51.44981  1.01%     -    1s
     0     0   51.44993    0  128   51.97276   51.44993  1.01%     -    1s
     0     0   51.47599    0  131   51.97276   51.47599  0.96%     -    1s
     0     0   51.47643    0  129   51.97276   51.47643  0.95%     -    1s
     0     0   51.49966    0  129   51.97276   51.49966  0.91%     -    1s
     0     0   51.50558    0  132   51.97276   51.50558  0.90%     -    1s
     0     0   51.50997    0  126   51.97276   51.50997  0.89%     -    1s
     0     0   51.53268    0  130   51.97276   51.53268  0.85%     -    1s
     0     0   51.53301    0  131   51.97276   51.53301  0.85%     -    1s
     0     0   51.53817    0  132   51.97276   51.53817  0.84%     -    1s
     0     0   51.53836    0  132   51.97276   51.53836  0.84%     -    1s
     0     0   51.54062    0  135   51.97276   51.54062  0.83%     -    1s
     0     0   51.54080    0  135   51.97276   51.54080  0.83%     -    1s
     0     0   51.54238    0  135   51.97276   51.54238  0.83%     -    1s
     0     0   51.54238    0  135   51.97276   51.54238  0.83%     -    1s
     0     0   51.54238    0  135   51.97276   51.54238  0.83%     -    1s
     0     0   51.57274    0   75   51.97276   51.57274  0.77%     -    1s
     0     0   51.57274    0   66   51.97276   51.57274  0.77%     -    1s
     0     0   51.57274    0   74   51.97276   51.57274  0.77%     -    1s
     0     0   51.65236    0   91   51.97276   51.65236  0.62%     -    1s
     0     0   51.67226    0   94   51.97276   51.67226  0.58%     -    1s
     0     0   51.68756    0   93   51.97276   51.68756  0.55%     -    1s
     0     0   51.78114    0   89   51.97276   51.78114  0.37%     -    1s
     0     0   51.78404    0   89   51.97276   51.78404  0.36%     -    1s
     0     0   51.82149    0   80   51.97276   51.82149  0.29%     -    1s
     0     0   51.83122    0   80   51.97276   51.83122  0.27%     -    1s
     0     0   51.84463    0   80   51.97276   51.84463  0.25%     -    1s
     0     0   51.90305    0   78   51.97276   51.90305  0.13%     -    1s

Explored 1 nodes (3863 simplex iterations) in 1.50 seconds (0.77 work units)
Thread count was 4 (of 4 available processors)

Solution count 2: 51.9728 52.899 

Optimal solution found (tolerance 1.00e-04)
Best objective 5.197275705110e+01, best bound 5.197275705110e+01, gap 0.0000%
